unsat
(:SPACER-conj                         2
 :SPACER-expand-pob-undef             1
 :SPACER-inductive-gen                23
 :SPACER-inductive-gen-weaken-fail    36
 :SPACER-inductive-gen-weaken-success 1
 :SPACER-inductive-level              5
 :SPACER-max-depth                    6
 :SPACER-max-query-lvl                6
 :SPACER-non-local-gen                3
 :SPACER-num-active-lemmas            16
 :SPACER-num-ctp-blocked              7
 :SPACER-num-invariants               10
 :SPACER-num-is_invariant             47
 :SPACER-num-lemma-jumped             6
 :SPACER-num-lemmas                   33
 :SPACER-num-pobs                     16
 :SPACER-num-propagations             14
 :SPACER-num-queries                  28
 :SPACER-num-reach-queries            4
 :SPACER-num-reuse-reach-facts        4
 :added-eqs                           17660
 :arith-assert-diseq                  1890
 :arith-assert-lower                  11814
 :arith-assert-upper                  8510
 :arith-bound-prop                    1036
 :arith-conflicts                     170
 :arith-eq-adapter                    2390
 :arith-fixed-eqs                     3298
 :arith-gcd-tests                     46
 :arith-num-rows                      152
 :arith-offset-eqs                    1216
 :arith-patches                       4
 :arith-patches_succ                  4
 :arith-pivots                        2322
 :arith-row-summations                31926
 :arith-tableau-max-columns           258
 :arith-tableau-max-rows              152
 :conflicts                           616
 :decisions                           8956
 :del-clause                          5800
 :final-checks                        182
 :iuc_solver.num_proxies              93
 :max-memory                          32.39
 :memory                              31.94
 :minimized-lits                      692
 :mk-bool-var                         6746
 :mk-clause                           7690
 :num-allocs                          30431479
 :num-checks                          436
 :pool_solver.checks                  218
 :pool_solver.checks.sat              17
 :pool_solver.checks.undef            74
 :propagations                        38524
 :rlimit-count                        667778
 :time                                0.28
 :time.iuc_solver.get_iuc             0.04
 :time.iuc_solver.get_iuc.hyp_reduce1 0.01
 :time.iuc_solver.get_iuc.hyp_reduce2 0.02
 :time.iuc_solver.get_iuc.learn_core  0.01
 :time.pool_solver.proof              0.00
 :time.pool_solver.smt.total          0.16
 :time.pool_solver.smt.total.sat      0.01
 :time.pool_solver.smt.total.undef    0.09
 :time.spacer.init_rules              0.00
 :time.spacer.mbp                     0.00
 :time.spacer.solve                   0.26
 :time.spacer.solve.propagate         0.04
 :time.spacer.solve.reach             0.21
 :time.spacer.solve.reach.children    0.01
 :time.spacer.solve.reach.cluster     0.01
 :time.spacer.solve.reach.gen.global  0.01
 :time.spacer.solve.reach.gen.ind     0.06
 :time.spacer.solve.reach.is-reach    0.01)
(:max-memory   32.39
 :memory       31.94
 :num-allocs   30431479
 :rlimit-count 667778
 :time         0.28
 :total-time   0.29)
